Traveling Salesman Problem/TSP_generados/Aleatorio1621103316_9.tsp
NAME: Aleatorio1621103316_9.tsp
COMMENT: Randomly generated scenario
TYPE: TSP
DIMENSION: 9
EDGE_WEIGHT_TYPE: ATT
NODE_COORD_SECTION
1 12.49 32.48
2 4.99 44.01
3 37.06 44.86
4 18.17 8.32
5 27.95 14.78
6 8.86 3.1
7 48.86 39.6
8 33.37 33.19
9 30.99 26.71
