Traveling Salesman Problem/TSP_generados/Aleatorio1621103316_9.opt.tour
NAME: Aleatorio1621103316_9.opt.tour
COMMENT: Optimal solution for Aleatorio1621103316_9 (146.73144287945397)
TYPE: TOUR
DIMENSION: 9
TOUR_SECTION
1 6 4 5 9 8 7 3 2
-1
EOF
